wBN
1.0
10.0  0.0  0.0
 0.0 10.0  0.0
 0.0  0.0 10.0
2
direct
0.0 0.0 0.0
0.0 0.0 1.41112
