hf
1.0
10.0  0.0  0.0
 0.0 10.0  0.0
 0.0  0.0 10.0
1 1
direct
0.0 0.0 0.0
0.0 0.0 0.91516 
